[VALIDATOR STDOUT]
Checking plan: /home/jfan5/Safety-gen/runs/benchmark/optic/delivery_20260129_163024/delivery/optic_results/delivery_size19_packages1_seed19001.plan
Plan executed successfully - checking goal
Plan valid
Final value: 28 

Successful plans:
Value: 28
 /home/jfan5/Safety-gen/runs/benchmark/optic/delivery_20260129_163024/delivery/optic_results/delivery_size19_packages1_seed19001.plan 28
